50

91 15 286
88 16 358
88 15 316
87 18 340
87 25 285
86 19 325
86 21 310
85 2 307
85 20 343
84 1 395
83 13 291
80 18 279
79 7 237
78 4 239
77 20 377
70 3 391
70 19 332
68 8 208
67 6 389
66 6 337
59 14 380
52 10 242
49 8 262
48 12 299
47 2 188
47 2 180
44 7 238
42 7 161
38 6 235
37 3 380
37 1 263
34 0 343
34 9 175
33 0 167
31 4 299
29 3 220
27 1 375
24 5 186
21 0 268
17 5 188
16 3 189
16 5 353
15 5 390
14 0 337
8 0 322
6 0 309
5 0 138
4 2 62
2 1 186
2 0 201
